FourierSAT_Github_AIJ/benchmarks/MAXSAT_benchmarks/random/1/abrame-habet/v140/s2v140c1200-3.cnf
c Generated after 1 tries
c Graph with 140 nodes and 600 edges, Max edges:9730
c generated from an undirected graph
c to solve unweighted MaxCut
p cnf 140 1200
1 41 0
-1 -41 0
1 51 0
-1 -51 0
1 83 0
-1 -83 0
1 111 0
-1 -111 0
1 122 0
-1 -122 0
1 135 0
-1 -135 0
2 5 0
-2 -5 0
2 10 0
-2 -10 0
2 18 0
-2 -18 0
2 21 0
-2 -21 0
2 36 0
-2 -36 0
2 54 0
-2 -54 0
2 56 0
-2 -56 0
2 64 0
-2 -64 0
2 86 0
-2 -86 0
2 91 0
-2 -91 0
2 119 0
-2 -119 0
2 120 0
-2 -120 0
2 136 0
-2 -136 0
2 140 0
-2 -140 0
3 31 0
-3 -31 0
3 70 0
-3 -70 0
3 98 0
-3 -98 0
4 8 0
-4 -8 0
4 31 0
-4 -31 0
4 51 0
-4 -51 0
4 59 0
-4 -59 0
4 66 0
-4 -66 0
4 79 0
-4 -79 0
4 83 0
-4 -83 0
4 84 0
-4 -84 0
4 95 0
-4 -95 0
4 100 0
-4 -100 0
4 112 0
-4 -112 0
4 122 0
-4 -122 0
4 129 0
-4 -129 0
5 21 0
-5 -21 0
5 28 0
-5 -28 0
5 76 0
-5 -76 0
5 86 0
-5 -86 0
5 89 0
-5 -89 0
5 91 0
-5 -91 0
6 33 0
-6 -33 0
6 34 0
-6 -34 0
6 37 0
-6 -37 0
6 63 0
-6 -63 0
6 78 0
-6 -78 0
6 114 0
-6 -114 0
6 122 0
-6 -122 0
7 44 0
-7 -44 0
7 51 0
-7 -51 0
7 58 0
-7 -58 0
7 113 0
-7 -113 0
7 122 0
-7 -122 0
7 129 0
-7 -129 0
7 138 0
-7 -138 0
8 34 0
-8 -34 0
8 40 0
-8 -40 0
8 61 0
-8 -61 0
8 72 0
-8 -72 0
8 73 0
-8 -73 0
8 74 0
-8 -74 0
8 88 0
-8 -88 0
8 99 0
-8 -99 0
8 108 0
-8 -108 0
8 109 0
-8 -109 0
8 114 0
-8 -114 0
8 131 0
-8 -131 0
9 13 0
-9 -13 0
9 26 0
-9 -26 0
9 31 0
-9 -31 0
9 32 0
-9 -32 0
9 34 0
-9 -34 0
9 53 0
-9 -53 0
9 56 0
-9 -56 0
9 58 0
-9 -58 0
9 85 0
-9 -85 0
9 106 0
-9 -106 0
10 12 0
-10 -12 0
10 37 0
-10 -37 0
10 41 0
-10 -41 0
10 44 0
-10 -44 0
10 50 0
-10 -50 0
10 55 0
-10 -55 0
10 60 0
-10 -60 0
10 64 0
-10 -64 0
10 113 0
-10 -113 0
10 115 0
-10 -115 0
10 121 0
-10 -121 0
10 133 0
-10 -133 0
11 14 0
-11 -14 0
11 26 0
-11 -26 0
11 37 0
-11 -37 0
11 82 0
-11 -82 0
11 120 0
-11 -120 0
11 124 0
-11 -124 0
11 127 0
-11 -127 0
11 138 0
-11 -138 0
12 16 0
-12 -16 0
12 17 0
-12 -17 0
12 43 0
-12 -43 0
12 62 0
-12 -62 0
12 71 0
-12 -71 0
12 91 0
-12 -91 0
12 95 0
-12 -95 0
12 98 0
-12 -98 0
13 37 0
-13 -37 0
13 49 0
-13 -49 0
13 108 0
-13 -108 0
13 118 0
-13 -118 0
13 123 0
-13 -123 0
13 127 0
-13 -127 0
14 27 0
-14 -27 0
14 29 0
-14 -29 0
14 37 0
-14 -37 0
14 58 0
-14 -58 0
14 74 0
-14 -74 0
14 96 0
-14 -96 0
14 117 0
-14 -117 0
14 135 0
-14 -135 0
15 55 0
-15 -55 0
15 57 0
-15 -57 0
15 76 0
-15 -76 0
15 79 0
-15 -79 0
15 89 0
-15 -89 0
15 113 0
-15 -113 0
15 134 0
-15 -134 0
15 137 0
-15 -137 0
16 26 0
-16 -26 0
16 30 0
-16 -30 0
16 37 0
-16 -37 0
16 41 0
-16 -41 0
16 64 0
-16 -64 0
16 69 0
-16 -69 0
16 71 0
-16 -71 0
16 82 0
-16 -82 0
16 92 0
-16 -92 0
16 118 0
-16 -118 0
16 138 0
-16 -138 0
17 21 0
-17 -21 0
17 46 0
-17 -46 0
17 74 0
-17 -74 0
17 98 0
-17 -98 0
17 116 0
-17 -116 0
18 24 0
-18 -24 0
18 54 0
-18 -54 0
18 61 0
-18 -61 0
18 63 0
-18 -63 0
18 85 0
-18 -85 0
18 87 0
-18 -87 0
18 115 0
-18 -115 0
19 24 0
-19 -24 0
19 47 0
-19 -47 0
19 51 0
-19 -51 0
19 57 0
-19 -57 0
19 65 0
-19 -65 0
19 71 0
-19 -71 0
19 89 0
-19 -89 0
19 90 0
-19 -90 0
19 99 0
-19 -99 0
19 133 0
-19 -133 0
19 139 0
-19 -139 0
20 29 0
-20 -29 0
20 61 0
-20 -61 0
20 77 0
-20 -77 0
20 131 0
-20 -131 0
20 135 0
-20 -135 0
21 38 0
-21 -38 0
21 44 0
-21 -44 0
21 54 0
-21 -54 0
21 59 0
-21 -59 0
21 77 0
-21 -77 0
21 78 0
-21 -78 0
21 85 0
-21 -85 0
21 102 0
-21 -102 0
21 139 0
-21 -139 0
22 39 0
-22 -39 0
22 47 0
-22 -47 0
22 69 0
-22 -69 0
22 78 0
-22 -78 0
22 82 0
-22 -82 0
22 90 0
-22 -90 0
22 109 0
-22 -109 0
22 136 0
-22 -136 0
23 31 0
-23 -31 0
23 40 0
-23 -40 0
23 51 0
-23 -51 0
23 54 0
-23 -54 0
23 57 0
-23 -57 0
23 83 0
-23 -83 0
23 114 0
-23 -114 0
23 120 0
-23 -120 0
23 121 0
-23 -121 0
23 128 0
-23 -128 0
23 131 0
-23 -131 0
23 132 0
-23 -132 0
23 135 0
-23 -135 0
24 31 0
-24 -31 0
24 38 0
-24 -38 0
24 82 0
-24 -82 0
24 87 0
-24 -87 0
24 91 0
-24 -91 0
24 97 0
-24 -97 0
24 113 0
-24 -113 0
24 117 0
-24 -117 0
24 134 0
-24 -134 0
25 26 0
-25 -26 0
25 35 0
-25 -35 0
25 54 0
-25 -54 0
25 67 0
-25 -67 0
25 89 0
-25 -89 0
25 116 0
-25 -116 0
25 124 0
-25 -124 0
25 125 0
-25 -125 0
25 134 0
-25 -134 0
26 48 0
-26 -48 0
26 65 0
-26 -65 0
26 67 0
-26 -67 0
26 128 0
-26 -128 0
26 129 0
-26 -129 0
26 138 0
-26 -138 0
27 65 0
-27 -65 0
27 72 0
-27 -72 0
27 77 0
-27 -77 0
27 90 0
-27 -90 0
27 102 0
-27 -102 0
27 106 0
-27 -106 0
27 124 0
-27 -124 0
28 30 0
-28 -30 0
28 104 0
-28 -104 0
28 130 0
-28 -130 0
28 134 0
-28 -134 0
29 46 0
-29 -46 0
29 95 0
-29 -95 0
29 121 0
-29 -121 0
29 140 0
-29 -140 0
30 57 0
-30 -57 0
30 67 0
-30 -67 0
30 89 0
-30 -89 0
30 100 0
-30 -100 0
30 116 0
-30 -116 0
30 131 0
-30 -131 0
30 140 0
-30 -140 0
31 36 0
-31 -36 0
31 46 0
-31 -46 0
31 73 0
-31 -73 0
31 122 0
-31 -122 0
31 128 0
-31 -128 0
32 59 0
-32 -59 0
32 61 0
-32 -61 0
32 80 0
-32 -80 0
32 112 0
-32 -112 0
32 115 0
-32 -115 0
32 140 0
-32 -140 0
33 47 0
-33 -47 0
33 51 0
-33 -51 0
33 59 0
-33 -59 0
33 67 0
-33 -67 0
33 73 0
-33 -73 0
33 79 0
-33 -79 0
33 92 0
-33 -92 0
34 37 0
-34 -37 0
34 45 0
-34 -45 0
34 52 0
-34 -52 0
34 60 0
-34 -60 0
34 70 0
-34 -70 0
34 100 0
-34 -100 0
34 116 0
-34 -116 0
34 118 0
-34 -118 0
34 122 0
-34 -122 0
34 124 0
-34 -124 0
34 129 0
-34 -129 0
35 55 0
-35 -55 0
35 66 0
-35 -66 0
35 136 0
-35 -136 0
36 64 0
-36 -64 0
36 65 0
-36 -65 0
36 75 0
-36 -75 0
36 96 0
-36 -96 0
36 111 0
-36 -111 0
36 139 0
-36 -139 0
37 40 0
-37 -40 0
37 71 0
-37 -71 0
37 98 0
-37 -98 0
37 101 0
-37 -101 0
37 110 0
-37 -110 0
37 115 0
-37 -115 0
37 125 0
-37 -125 0
37 139 0
-37 -139 0
38 43 0
-38 -43 0
38 70 0
-38 -70 0
38 94 0
-38 -94 0
38 96 0
-38 -96 0
38 103 0
-38 -103 0
38 104 0
-38 -104 0
38 121 0
-38 -121 0
38 138 0
-38 -138 0
39 47 0
-39 -47 0
39 62 0
-39 -62 0
39 65 0
-39 -65 0
39 84 0
-39 -84 0
39 97 0
-39 -97 0
39 100 0
-39 -100 0
39 111 0
-39 -111 0
39 127 0
-39 -127 0
40 43 0
-40 -43 0
40 52 0
-40 -52 0
40 58 0
-40 -58 0
40 66 0
-40 -66 0
40 92 0
-40 -92 0
40 117 0
-40 -117 0
41 43 0
-41 -43 0
41 102 0
-41 -102 0
41 119 0
-41 -119 0
41 134 0
-41 -134 0
42 49 0
-42 -49 0
42 117 0
-42 -117 0
43 47 0
-43 -47 0
43 49 0
-43 -49 0
43 53 0
-43 -53 0
43 65 0
-43 -65 0
43 71 0
-43 -71 0
43 108 0
-43 -108 0
43 123 0
-43 -123 0
43 130 0
-43 -130 0
43 134 0
-43 -134 0
43 135 0
-43 -135 0
43 137 0
-43 -137 0
43 138 0
-43 -138 0
44 58 0
-44 -58 0
44 59 0
-44 -59 0
44 72 0
-44 -72 0
44 73 0
-44 -73 0
44 110 0
-44 -110 0
44 117 0
-44 -117 0
45 52 0
-45 -52 0
45 61 0
-45 -61 0
45 70 0
-45 -70 0
45 81 0
-45 -81 0
45 83 0
-45 -83 0
45 89 0
-45 -89 0
45 114 0
-45 -114 0
45 125 0
-45 -125 0
45 126 0
-45 -126 0
46 59 0
-46 -59 0
46 68 0
-46 -68 0
46 101 0
-46 -101 0
46 103 0
-46 -103 0
47 110 0
-47 -110 0
47 124 0
-47 -124 0
47 133 0
-47 -133 0
47 139 0
-47 -139 0
48 60 0
-48 -60 0
48 67 0
-48 -67 0
48 88 0
-48 -88 0
48 107 0
-48 -107 0
48 117 0
-48 -117 0
49 52 0
-49 -52 0
49 68 0
-49 -68 0
49 85 0
-49 -85 0
49 125 0
-49 -125 0
49 127 0
-49 -127 0
49 128 0
-49 -128 0
50 78 0
-50 -78 0
50 113 0
-50 -113 0
50 133 0
-50 -133 0
50 134 0
-50 -134 0
51 60 0
-51 -60 0
51 61 0
-51 -61 0
51 65 0
-51 -65 0
51 84 0
-51 -84 0
51 93 0
-51 -93 0
51 112 0
-51 -112 0
51 139 0
-51 -139 0
52 65 0
-52 -65 0
52 102 0
-52 -102 0
52 120 0
-52 -120 0
53 78 0
-53 -78 0
53 99 0
-53 -99 0
54 65 0
-54 -65 0
54 71 0
-54 -71 0
54 95 0
-54 -95 0
54 100 0
-54 -100 0
54 101 0
-54 -101 0
54 137 0
-54 -137 0
55 99 0
-55 -99 0
56 67 0
-56 -67 0
56 100 0
-56 -100 0
56 106 0
-56 -106 0
56 112 0
-56 -112 0
56 116 0
-56 -116 0
56 126 0
-56 -126 0
56 130 0
-56 -130 0
56 135 0
-56 -135 0
57 67 0
-57 -67 0
57 105 0
-57 -105 0
57 116 0
-57 -116 0
58 65 0
-58 -65 0
58 67 0
-58 -67 0
58 103 0
-58 -103 0
59 66 0
-59 -66 0
59 118 0
-59 -118 0
59 126 0
-59 -126 0
59 128 0
-59 -128 0
59 138 0
-59 -138 0
60 109 0
-60 -109 0
60 114 0
-60 -114 0
60 124 0
-60 -124 0
61 112 0
-61 -112 0
61 136 0
-61 -136 0
62 82 0
-62 -82 0
62 116 0
-62 -116 0
62 123 0
-62 -123 0
63 66 0
-63 -66 0
63 72 0
-63 -72 0
63 74 0
-63 -74 0
63 89 0
-63 -89 0
63 95 0
-63 -95 0
63 108 0
-63 -108 0
63 119 0
-63 -119 0
64 89 0
-64 -89 0
64 112 0
-64 -112 0
64 118 0
-64 -118 0
65 72 0
-65 -72 0
65 81 0
-65 -81 0
65 87 0
-65 -87 0
65 88 0
-65 -88 0
65 91 0
-65 -91 0
65 106 0
-65 -106 0
65 107 0
-65 -107 0
65 108 0
-65 -108 0
65 120 0
-65 -120 0
65 126 0
-65 -126 0
66 71 0
-66 -71 0
66 77 0
-66 -77 0
66 78 0
-66 -78 0
66 89 0
-66 -89 0
66 90 0
-66 -90 0
66 91 0
-66 -91 0
66 112 0
-66 -112 0
66 125 0
-66 -125 0
66 128 0
-66 -128 0
67 89 0
-67 -89 0
67 90 0
-67 -90 0
67 100 0
-67 -100 0
67 105 0
-67 -105 0
67 120 0
-67 -120 0
67 135 0
-67 -135 0
68 72 0
-68 -72 0
68 101 0
-68 -101 0
68 137 0
-68 -137 0
69 84 0
-69 -84 0
69 87 0
-69 -87 0
69 100 0
-69 -100 0
69 103 0
-69 -103 0
69 114 0
-69 -114 0
69 120 0
-69 -120 0
69 124 0
-69 -124 0
69 138 0
-69 -138 0
70 81 0
-70 -81 0
70 105 0
-70 -105 0
70 140 0
-70 -140 0
71 89 0
-71 -89 0
71 95 0
-71 -95 0
71 107 0
-71 -107 0
71 109 0
-71 -109 0
72 128 0
-72 -128 0
72 134 0
-72 -134 0
73 124 0
-73 -124 0
74 77 0
-74 -77 0
74 83 0
-74 -83 0
74 84 0
-74 -84 0
74 86 0
-74 -86 0
74 89 0
-74 -89 0
74 132 0
-74 -132 0
74 133 0
-74 -133 0
75 80 0
-75 -80 0
76 96 0
-76 -96 0
76 109 0
-76 -109 0
76 110 0
-76 -110 0
76 122 0
-76 -122 0
77 94 0
-77 -94 0
77 101 0
-77 -101 0
77 117 0
-77 -117 0
78 109 0
-78 -109 0
78 115 0
-78 -115 0
78 132 0
-78 -132 0
78 137 0
-78 -137 0
79 94 0
-79 -94 0
79 103 0
-79 -103 0
80 81 0
-80 -81 0
80 84 0
-80 -84 0
80 92 0
-80 -92 0
80 98 0
-80 -98 0
80 117 0
-80 -117 0
80 135 0
-80 -135 0
81 104 0
-81 -104 0
81 123 0
-81 -123 0
82 83 0
-82 -83 0
82 103 0
-82 -103 0
82 137 0
-82 -137 0
83 101 0
-83 -101 0
83 103 0
-83 -103 0
83 109 0
-83 -109 0
83 115 0
-83 -115 0
83 126 0
-83 -126 0
84 85 0
-84 -85 0
84 90 0
-84 -90 0
84 94 0
-84 -94 0
84 99 0
-84 -99 0
84 100 0
-84 -100 0
84 113 0
-84 -113 0
84 117 0
-84 -117 0
84 122 0
-84 -122 0
84 133 0
-84 -133 0
84 140 0
-84 -140 0
85 93 0
-85 -93 0
85 107 0
-85 -107 0
85 121 0
-85 -121 0
85 130 0
-85 -130 0
86 100 0
-86 -100 0
86 125 0
-86 -125 0
86 130 0
-86 -130 0
86 132 0
-86 -132 0
86 136 0
-86 -136 0
86 139 0
-86 -139 0
87 91 0
-87 -91 0
87 92 0
-87 -92 0
87 108 0
-87 -108 0
87 115 0
-87 -115 0
87 116 0
-87 -116 0
87 128 0
-87 -128 0
88 117 0
-88 -117 0
88 130 0
-88 -130 0
89 100 0
-89 -100 0
90 99 0
-90 -99 0
92 104 0
-92 -104 0
92 121 0
-92 -121 0
92 127 0
-92 -127 0
92 133 0
-92 -133 0
92 137 0
-92 -137 0
93 105 0
-93 -105 0
95 104 0
-95 -104 0
95 114 0
-95 -114 0
95 116 0
-95 -116 0
97 100 0
-97 -100 0
97 104 0
-97 -104 0
97 109 0
-97 -109 0
97 117 0
-97 -117 0
97 129 0
-97 -129 0
98 102 0
-98 -102 0
98 106 0
-98 -106 0
98 108 0
-98 -108 0
98 136 0
-98 -136 0
99 124 0
-99 -124 0
100 114 0
-100 -114 0
100 125 0
-100 -125 0
101 104 0
-101 -104 0
101 124 0
-101 -124 0
101 127 0
-101 -127 0
102 128 0
-102 -128 0
102 136 0
-102 -136 0
104 124 0
-104 -124 0
104 127 0
-104 -127 0
106 116 0
-106 -116 0
106 126 0
-106 -126 0
107 124 0
-107 -124 0
107 137 0
-107 -137 0
109 124 0
-109 -124 0
109 131 0
-109 -131 0
109 138 0
-109 -138 0
110 120 0
-110 -120 0
111 129 0
-111 -129 0
112 114 0
-112 -114 0
112 130 0
-112 -130 0
113 128 0
-113 -128 0
113 132 0
-113 -132 0
113 134 0
-113 -134 0
114 127 0
-114 -127 0
114 137 0
-114 -137 0
115 126 0
-115 -126 0
116 117 0
-116 -117 0
116 118 0
-116 -118 0
117 118 0
-117 -118 0
118 119 0
-118 -119 0
119 127 0
-119 -127 0
119 134 0
-119 -134 0
121 124 0
-121 -124 0
121 126 0
-121 -126 0
122 127 0
-122 -127 0
123 128 0
-123 -128 0
123 138 0
-123 -138 0
125 140 0
-125 -140 0
126 134 0
-126 -134 0
128 130 0
-128 -130 0
128 134 0
-128 -134 0
130 140 0
-130 -140 0
132 137 0
-132 -137 0
135 136 0
-135 -136 0
135 139 0
-135 -139 0
