FourierSAT_Github_AIJ/res/fs_1core/s2v140c1200-3.cnf.txt
o 184
o 178
o 177
